CMD:
./solvers/bin/cadical --plain --no-reduce -t 1600 ./data/cnfs//qspiflash_dualflexpress_divthree-p094/qspiflash_dualflexpress_divthree-p094.55.cnf

c --- [ banner ] -------------------------------------------------------------
c 
c CaDiCaL SAT Solver
c Copyright (c) 2016-2024
c A. Biere, M. Fleury, N. Froleyks, K. Fazekas, F. Pollitt, T. Faller
c JKU Linz, University of Freiburg, TU Wien
c 
c Version 2.1.3 5296d3d2a9bf48c154ab2acb5e44625776d821bf
c g++ (Gentoo 12.3.1_p20230526 p2) 12.3.1 20230526 -Wall -Wextra -O3 -DNDEBUG
c Sat Aug 9 07:26:21 PDT 2025 Linux cedar2.int.cedar.computecanada.ca 5.14.0-362.24.2.el9_3.x86_64 x86_64
c 
c --- [ limit ] --------------------------------------------------------------
c 
c setting time limit to 1600 seconds real time (due to '-t 1600')
c 
c --- [ parsing input ] ------------------------------------------------------
c 
c reading DIMACS file from './data/cnfs//qspiflash_dualflexpress_divthree-p094/qspiflash_dualflexpress_divthree-p094.55.cnf'
c opening file to read './data/cnfs//qspiflash_dualflexpress_divthree-p094/qspiflash_dualflexpress_divthree-p094.55.cnf'
c found 'p cnf 165214 481994' header
c parsed 481994 clauses in 0.09 seconds process time
c 
c --- [ options ] ------------------------------------------------------------
c 
c   --compact=false                (different from default 'true')
c   --decompose=false              (different from default 'true')
c   --deduplicate=false            (different from default 'true')
c   --elim=false                   (different from default 'true')
c   --probe=false                  (different from default 'true')
c   --reduce=false                 (different from default 'true')
c   --subsume=false                (different from default 'true')
c   --ternary=false                (different from default 'true')
c   --transred=false               (different from default 'true')
c   --vivify=false                 (different from default 'true')
c 
c --- [ solving ] ------------------------------------------------------------
c 
c time measured in process time since initialization
c 
c  seconds  reductions  redundant  irredundant
c         MB    restarts       trail       variables
c          level   conflicts       glue          remaining
c 
c *  0.09 76  0 0   0    0    0  0% 0 461564 151601 92%
c {  0.13 78  0 0   0    0    0  0% 0 461564 151601 92%
c i  0.13 78  6 0   0    2    1  9% 0 461564 151587 92%
c i  0.13 78  5 0   0    4    1  9% 0 461564 150510 91%
c i  0.15 79 48 0   0   42   38 22% 2 461564 150056 91%
c i  0.15 79 47 0   0   43   38 22% 2 461564 150045 91%
c i  0.15 79 46 0   0   44   38 21% 2 461564 149674 91%
c i  0.15 79 92 0   5   96   76 19% 2 461564 149005 90%
c i  0.15 79 76 0   9  117   94 18% 2 461564 148419 90%
c i  0.15 79 76 0   9  118   94 18% 2 461564 148272 90%
c i  0.15 79 75 0   9  119   94 18% 2 461564 148054 90%
c i  0.16 79 64 0  11  168  140 18% 2 461564 148052 90%
c i  0.16 79 62 0  11  172  143 17% 2 461564 148040 90%
c i  0.16 79 59 0  11  182  149 17% 2 461564 148030 90%
c i  0.18 79 64 0  25  314  268 22% 3 461564 146294 89%
c i  0.18 79 64 0  26  315  268 22% 3 461564 146157 88%
c i  0.19 79 63 0  27  320  272 22% 3 461564 146119 88%
c i  0.19 79 63 0  29  325  274 22% 3 461564 145956 88%
c i  0.19 79 62 0  30  331  278 22% 3 461564 145746 88%
c i  0.19 79 60 0  30  339  284 22% 3 461564 145498 88%
c 
c  seconds  reductions  redundant  irredundant
c         MB    restarts       trail       variables
c          level   conflicts       glue          remaining
c 
c i  0.19 79 59 0  30  347  290 22% 3 461564 145496 88%
c i  0.19 79 59 0  30  349  291 22% 3 461564 145137 88%
c i  0.19 79 57 0  30  359  299 21% 3 461564 143529 87%
c i  0.19 79 57 0  30  360  299 21% 3 461564 143386 87%
c i  0.20 79 54 0  30  388  325 22% 3 461564 142360 86%
c i  0.20 79 54 0  30  389  325 22% 2 461564 142351 86%
c i  0.20 79 53 0  30  398  330 21% 2 461564 142128 86%
c i  0.20 79 52 0  30  399  330 21% 2 461564 142084 86%
c i  0.20 79 52 0  30  401  331 21% 2 461564 141813 86%
c i  0.20 79 52 0  30  404  332 21% 2 461564 140578 85%
c i  0.21 79 52 0  34  525  444 22% 2 461564 140352 85%
c i  0.21 79 51 0  34  528  446 22% 2 461564 140348 85%
c i  0.21 79 51 0  35  535  452 22% 2 461564 140343 85%
c i  0.21 79 50 0  36  550  457 22% 2 461564 137124 83%
c i  0.22 79 47 0  38  599  500 22% 2 461564 136899 83%
c i  0.22 79 47 0  38  602  502 22% 2 461564 136856 83%
c i  0.22 79 46 0  40  616  515 22% 2 461564 136592 83%
c i  0.22 79 44 0  43  645  539 22% 2 461564 134073 81%
c i  0.22 79 44 0  43  648  540 22% 2 461564 131785 80%
c i  0.22 79 44 0  43  650  541 22% 2 461564 131224 79%
c 
c  seconds  reductions  redundant  irredundant
c         MB    restarts       trail       variables
c          level   conflicts       glue          remaining
c 
c i  0.24 80 44 0  45  690  579 23% 2 461564 130607 79%
c i  0.24 80 44 0  46  696  582 23% 2 461564 126899 77%
c i  0.24 80 43 0  48  710  595 23% 2 461564 126895 77%
c i  0.24 80 42 0  48  737  615 23% 2 461564 126582 77%
c i  0.25 80 41 0  48  775  648 24% 2 461564 126581 77%
c i  0.26 80 39 0  52  839  705 24% 2 461564 120204 73%
c i  0.26 80 39 0  52  841  706 24% 2 461564 118061 71%
c }  0.26 80 39 0  52  845  707 24% 2 461564 117135 71%
c 0  0.26 80 39 0  52  845  707 24% 2 461564 117135 71%
c 
c --- [ result ] -------------------------------------------------------------
c 
s UNSATISFIABLE
c 
c --- [ run-time profiling ] -------------------------------------------------
c 
c process time taken by individual solving procedures
c (percentage relative to process time for solving)
c 
c         0.18   99.94% search
c         0.14   76.96% unstable
c         0.09   48.89% parse
c         0.04   22.96% lucky
c         0.00    0.00% simplify
c   =================================
c         0.18   67.01% solve
c 
c last line shows process time for solving
c (percentage relative to total process time)
c 
c --- [ statistics ] ---------------------------------------------------------
c 
c chronological:               412        48.76 %  of conflicts
c conflicts:                   845      4791.25    per second
c decisions:                  3077     17446.97    per second
c fixed:                     48045        29.08 %  of all variables
c learned:                     788        93.25 %  per conflict
c learned_lits:               6022       100.00 %  learned literals
c minimized:                     0         0.00 %  learned literals
c shrunken:                    603        10.01 %  learned literals
c minishrunken:                302         5.01 %  learned literals
c otfs:                          7         0.83 %  of conflict
c propagations:            2177469        12.35 M  per second
c restarts:                     52        16.25    interval
c subsumed:                     29         0.01 %  of all clauses
c strengthened:                  7         0.00 %  of all clauses
c 
c seconds are measured in process time for solving
c 
c --- [ resources ] ----------------------------------------------------------
c 
c total process time since initialization:         0.26    seconds
c total real time since initialization:            0.27    seconds
c maximum resident set size of process:           78.04    MB
c 
c --- [ shutting down ] ------------------------------------------------------
c 
c exit 20
